50
8356

508 678
253 911
633 179
403 610
910 998
37 995
265 947
941 483
362 435
693 431
825 758
339 481
789 75
38 910
679 385
536 533
390 503
161 575
704 542
782 783
333 558
279 274
631 849
294 995
415 379
306 234
142 453
624 830
832 118
473 264
53 68
229 592
679 537
157 673
957 730
313 440
420 694
612 486
110 828
418 212
342 438
416 394
468 78
798 115
625 947
622 686
52 680
108 39
564 895
460 740
